c another try from class.
c p 1
c q 2
c r 3
c s 4
c t 5
c v 6
c m 7
c f 8
c w 9
c {p,!q,r} ^ {!p,s,q} ^ {s,t,v} ^ {!v,p,t} ^ {m,!f,w,r} ^ {q,f,v}
p cnf 9 6
1 -2 3 0
-1 4 2 0
4 5 6 0
-6 1 5 0
7 -8 9 3 0
2 8 6 0
